NAME 
ROWS
 N  OBJ
 L  R0      
 L  R1      
 L  R2      
 E  R3      
 E  R4      
 E  R5      
 E  R6      
 E  R7      
 E  R8      
 E  R9      
 E  R10     
 E  R11     
 E  R12     
 E  R13     
 E  R14     
 E  R15     
 E  R16     
 E  R17     
 E  R18     
 E  R19     
 E  R20     
 E  R21     
 E  R22     
 E  R23     
 E  R24     
 E  R25     
 E  R26     
 E  R27     
COLUMNS
    MARKER    'MARKER'                 'INTORG'
    I0(11)    OBJ       -103
    I0(11)    R0        -168
    I0(11)    R1        -144
    I0(11)    R2        50
    I0(11)    R6        7
    I0(11)    R7        15
    I0(11)    R8        13
    I0(11)    R11       5
    I0(11)    R12       14
    I0(11)    R13       1
    I0(11)    R14       10
    I0(11)    R27       1
    I1(11)    OBJ       -71
    I1(11)    R0        31
    I1(11)    R1        135
    I1(11)    R2        -93
    I1(11)    R6        1
    I1(11)    R8        17
    I1(11)    R9        -1
    I1(11)    R10       3
    I1(11)    R11       8
    I1(11)    R13       16
    I1(11)    R14       14
    I1(11)    R27       1
    I2(13)    OBJ       186
    I2(13)    R0        -138
    I2(13)    R1        8
    I2(13)    R2        104
    I2(13)    R4        14
    I2(13)    R5        6
    I2(13)    R6        9
    I2(13)    R7        17
    I2(13)    R8        4
    I2(13)    R9        5
    I2(13)    R10       14
    I2(13)    R11       3
    I2(13)    R13       15
    I2(13)    R27       1
    I3(12)    OBJ       -186
    I3(12)    R0        136
    I3(12)    R1        91
    I3(12)    R2        -120
    I3(12)    R3        19
    I3(12)    R4        15
    I3(12)    R5        -1
    I3(12)    R10       10
    I3(12)    R11       10
    I3(12)    R12       14
    I3(12)    R13       16
    I3(12)    R14       5
    I3(12)    R27       1
    I4(15)    OBJ       -69
    I4(15)    R0        -115
    I4(15)    R1        99
    I4(15)    R2        137
    I4(15)    R4        19
    I4(15)    R5        5
    I4(15)    R6        2
    I4(15)    R7        19
    I4(15)    R8        -1
    I4(15)    R9        13
    I4(15)    R10       4
    I4(15)    R11       5
    I4(15)    R12       18
    I4(15)    R13       1
    I4(15)    R14       4
    I4(15)    R27       1
    I5(10)    OBJ       152
    I5(10)    R0        -156
    I5(10)    R1        -82
    I5(10)    R2        -81
    I5(10)    R5        9
    I5(10)    R6        7
    I5(10)    R10       12
    I5(10)    R11       14
    I5(10)    R12       11
    I5(10)    R14       15
    I5(10)    R27       1
    I6(12)    OBJ       115
    I6(12)    R0        -128
    I6(12)    R1        142
    I6(12)    R2        138
    I6(12)    R3        18
    I6(12)    R4        16
    I6(12)    R5        4
    I6(12)    R6        2
    I6(12)    R8        4
    I6(12)    R9        9
    I6(12)    R11       5
    I6(12)    R13       11
    I6(12)    R27       1
    I7(11)    OBJ       45
    I7(11)    R0        -93
    I7(11)    R1        185
    I7(11)    R2        104
    I7(11)    R5        13
    I7(11)    R7        17
    I7(11)    R9        2
    I7(11)    R11       13
    I7(11)    R12       19
    I7(11)    R13       2
    I7(11)    R14       -1
    I7(11)    R27       1
    I8(12)    OBJ       -46
    I8(12)    R0        -9
    I8(12)    R1        85
    I8(12)    R2        -150
    I8(12)    R4        9
    I8(12)    R5        15
    I8(12)    R8        16
    I8(12)    R9        4
    I8(12)    R10       15
    I8(12)    R11       6
    I8(12)    R12       8
    I8(12)    R14       2
    I8(12)    R27       1
    I9(11)    OBJ       -85
    I9(11)    R0        105
    I9(11)    R1        -82
    I9(11)    R2        -59
    I9(11)    R4        9
    I9(11)    R5        18
    I9(11)    R7        14
    I9(11)    R9        6
    I9(11)    R10       5
    I9(11)    R12       5
    I9(11)    R14       6
    I9(11)    R27       1
    I10(9)    OBJ       -133
    I10(9)    R0        -93
    I10(9)    R1        -6
    I10(9)    R2        -53
    I10(9)    R4        9
    I10(9)    R6        11
    I10(9)    R10       18
    I10(9)    R12       1
    I10(9)    R14       14
    I10(9)    R27       1
    I11(8)    OBJ       41
    I11(8)    R0        -150
    I11(8)    R1        28
    I11(8)    R2        -106
    I11(8)    R5        15
    I11(8)    R10       16
    I11(8)    R12       4
    I11(8)    R14       1
    I11(8)    R27       1
    MARKER    'MARKER'                 'INTEND'
    C12(18)   OBJ       4
    C12(18)   R0        4
    C12(18)   R1        8
    C12(18)   R2        6
    C12(18)   R8        1
    C12(18)   R9        11
    C12(18)   R10       18
    C12(18)   R11       3
    C12(18)   R12       3
    C12(18)   R14       15
    C12(18)   R15       2
    C12(18)   R16       -1
    C12(18)   R17       17
    C12(18)   R19       14
    C12(18)   R21       6
    C12(18)   R22       6
    C12(18)   R23       14
    C12(18)   R24       9
    C12(18)   R25       -1
    C13(24)   R0        -7
    C13(24)   R1        8
    C13(24)   R2        -2
    C13(24)   R3        17
    C13(24)   R4        11
    C13(24)   R5        8
    C13(24)   R6        19
    C13(24)   R7        12
    C13(24)   R8        8
    C13(24)   R9        1
    C13(24)   R10       16
    C13(24)   R11       11
    C13(24)   R12       5
    C13(24)   R13       10
    C13(24)   R14       3
    C13(24)   R15       6
    C13(24)   R16       5
    C13(24)   R18       13
    C13(24)   R19       -1
    C13(24)   R20       12
    C13(24)   R21       1
    C13(24)   R23       8
    C13(24)   R25       11
    C13(24)   R26       -1
    C14(16)   OBJ       -7
    C14(16)   R0        -4
    C14(16)   R1        -3
    C14(16)   R2        7
    C14(16)   R4        3
    C14(16)   R5        4
    C14(16)   R6        12
    C14(16)   R8        16
    C14(16)   R10       1
    C14(16)   R11       2
    C14(16)   R12       1
    C14(16)   R15       5
    C14(16)   R17       17
    C14(16)   R18       16
    C14(16)   R19       3
    C14(16)   R20       12
    C14(16)   R22       6
    C15(19)   OBJ       -10
    C15(19)   R0        -4
    C15(19)   R1        -5
    C15(19)   R2        1
    C15(19)   R3        16
    C15(19)   R4        10
    C15(19)   R5        4
    C15(19)   R6        14
    C15(19)   R7        3
    C15(19)   R9        4
    C15(19)   R10       19
    C15(19)   R11       7
    C15(19)   R12       4
    C15(19)   R13       12
    C15(19)   R17       15
    C15(19)   R19       11
    C15(19)   R20       14
    C15(19)   R24       17
    C15(19)   R25       7
    C15(19)   R26       17
    C16(19)   OBJ       -5
    C16(19)   R0        -1
    C16(19)   R1        -10
    C16(19)   R2        7
    C16(19)   R3        18
    C16(19)   R6        13
    C16(19)   R7        7
    C16(19)   R10       10
    C16(19)   R12       17
    C16(19)   R13       14
    C16(19)   R14       3
    C16(19)   R16       12
    C16(19)   R17       13
    C16(19)   R18       10
    C16(19)   R19       19
    C16(19)   R21       18
    C16(19)   R22       2
    C16(19)   R23       15
    C16(19)   R24       8
    C16(19)   R25       6
    C17(15)   OBJ       -8
    C17(15)   R0        -3
    C17(15)   R1        2
    C17(15)   R2        9
    C17(15)   R3        17
    C17(15)   R5        10
    C17(15)   R6        18
    C17(15)   R8        12
    C17(15)   R11       19
    C17(15)   R15       2
    C17(15)   R16       14
    C17(15)   R20       5
    C17(15)   R21       10
    C17(15)   R23       1
    C17(15)   R25       8
    C17(15)   R26       7
    C18(21)   OBJ       2
    C18(21)   R0        7
    C18(21)   R1        -7
    C18(21)   R3        8
    C18(21)   R4        16
    C18(21)   R6        8
    C18(21)   R7        16
    C18(21)   R8        19
    C18(21)   R9        2
    C18(21)   R12       11
    C18(21)   R13       14
    C18(21)   R14       6
    C18(21)   R15       14
    C18(21)   R16       12
    C18(21)   R17       7
    C18(21)   R18       9
    C18(21)   R19       1
    C18(21)   R20       3
    C18(21)   R21       6
    C18(21)   R22       11
    C18(21)   R23       10
    C18(21)   R24       3
    C19(19)   OBJ       2
    C19(19)   R0        -4
    C19(19)   R2        1
    C19(19)   R3        5
    C19(19)   R4        11
    C19(19)   R7        19
    C19(19)   R8        -1
    C19(19)   R9        10
    C19(19)   R10       2
    C19(19)   R11       13
    C19(19)   R12       14
    C19(19)   R13       4
    C19(19)   R14       4
    C19(19)   R17       14
    C19(19)   R18       10
    C19(19)   R19       5
    C19(19)   R21       19
    C19(19)   R24       4
    C19(19)   R25       16
    C19(19)   R26       19
    C20(20)   OBJ       3
    C20(20)   R0        -2
    C20(20)   R1        8
    C20(20)   R2        3
    C20(20)   R3        -1
    C20(20)   R4        12
    C20(20)   R5        6
    C20(20)   R6        2
    C20(20)   R7        -1
    C20(20)   R8        11
    C20(20)   R11       9
    C20(20)   R12       10
    C20(20)   R13       -1
    C20(20)   R14       10
    C20(20)   R15       16
    C20(20)   R16       18
    C20(20)   R20       2
    C20(20)   R21       11
    C20(20)   R24       9
    C20(20)   R25       13
    C20(20)   R26       11
    C21(20)   OBJ       6
    C21(20)   R0        -1
    C21(20)   R1        -4
    C21(20)   R2        1
    C21(20)   R5        10
    C21(20)   R7        3
    C21(20)   R8        2
    C21(20)   R10       9
    C21(20)   R11       17
    C21(20)   R12       14
    C21(20)   R14       19
    C21(20)   R15       12
    C21(20)   R17       14
    C21(20)   R19       1
    C21(20)   R20       7
    C21(20)   R21       19
    C21(20)   R22       11
    C21(20)   R23       10
    C21(20)   R24       9
    C21(20)   R25       1
    C21(20)   R26       5
    C22(19)   OBJ       -9
    C22(19)   R0        8
    C22(19)   R1        -2
    C22(19)   R2        -6
    C22(19)   R3        9
    C22(19)   R5        3
    C22(19)   R6        8
    C22(19)   R7        3
    C22(19)   R10       12
    C22(19)   R11       16
    C22(19)   R12       2
    C22(19)   R13       19
    C22(19)   R15       10
    C22(19)   R16       17
    C22(19)   R18       7
    C22(19)   R20       6
    C22(19)   R21       16
    C22(19)   R22       8
    C22(19)   R25       19
    C22(19)   R26       16
    C23(19)   OBJ       3
    C23(19)   R0        -5
    C23(19)   R1        -7
    C23(19)   R2        -5
    C23(19)   R4        19
    C23(19)   R5        11
    C23(19)   R7        18
    C23(19)   R8        3
    C23(19)   R9        15
    C23(19)   R10       -1
    C23(19)   R12       10
    C23(19)   R15       14
    C23(19)   R16       16
    C23(19)   R17       16
    C23(19)   R18       14
    C23(19)   R19       12
    C23(19)   R22       11
    C23(19)   R23       14
    C23(19)   R25       1
    C23(19)   R26       12
    C24(21)   OBJ       -3
    C24(21)   R0        6
    C24(21)   R1        1
    C24(21)   R2        7
    C24(21)   R4        17
    C24(21)   R6        3
    C24(21)   R7        13
    C24(21)   R8        16
    C24(21)   R9        15
    C24(21)   R10       11
    C24(21)   R11       19
    C24(21)   R12       -1
    C24(21)   R14       10
    C24(21)   R17       14
    C24(21)   R18       17
    C24(21)   R19       9
    C24(21)   R20       2
    C24(21)   R21       19
    C24(21)   R23       6
    C24(21)   R24       8
    C24(21)   R25       16
    C24(21)   R26       13
    C25(1)    R3        1
    C26(1)    R4        1
    C27(1)    R5        1
    C28(1)    R6        1
    C29(1)    R7        1
    C30(1)    R8        1
    C31(1)    R9        1
    C32(1)    R10       1
    C33(1)    R11       1
    C34(1)    R12       1
    C35(1)    R13       1
    C36(1)    R14       1
    C37(1)    R15       1
    C38(1)    R16       1
    C39(1)    R17       1
    C40(1)    R18       1
    C41(1)    R19       1
    C42(1)    R20       1
    C43(1)    R21       1
    C44(1)    R22       1
    C45(1)    R23       1
    C46(1)    R24       1
    C47(1)    R25       1
    C48(1)    R26       1
    C49(1)    R27       1
RHS
    RHS1      R0        6.2425860023724811e+00
    RHS1      R1        2.7293001186239621e+01
    RHS1      R2        -2.2298754448398577e+02
    RHS1      R3        68
    RHS1      R4        54
    RHS1      R5        50
    RHS1      R6        94
    RHS1      R7        54
    RHS1      R8        59
    RHS1      R9        81
    RHS1      R10       50
    RHS1      R11       95
    RHS1      R12       81
    RHS1      R13       99
    RHS1      R14       62
    RHS1      R15       73
    RHS1      R16       76
    RHS1      R17       89
    RHS1      R18       82
    RHS1      R19       72
    RHS1      R20       92
    RHS1      R21       93
    RHS1      R22       79
    RHS1      R23       84
    RHS1      R24       72
    RHS1      R25       74
    RHS1      R26       93
    RHS1      R27       4
BOUNDS
 UP BND1      I0(11)    2
 UP BND1      I1(11)    2
 UP BND1      I2(13)    2
 UP BND1      I3(12)    2
 UP BND1      I4(15)    2
 UP BND1      I5(10)    2
 UP BND1      I6(12)    2
 UP BND1      I7(11)    2
 UP BND1      I8(12)    2
 UP BND1      I9(11)    2
 UP BND1      I10(9)    2
 UP BND1      I11(8)    2
ENDATA
